c FILE: miles250.col
c Translated from Stanford GraphBase File: miles250.gb
c Stanford GraphBase ID: miles(128,0,0,0,250,127,0)
p edge 128 774
e 1 109
e 1 98
e 1 80
e 1 55
e 1 31
e 2 127
e 2 123
e 2 113
e 2 111
e 2 93
e 2 75
e 2 45
e 2 10
e 3 5
e 4 124
e 4 104
e 4 40
e 4 26
e 4 21
e 4 18
e 4 9
e 5 87
e 5 48
e 5 3
e 6 89
e 6 71
e 6 60
e 6 23
e 6 13
e 7 99
e 7 91
e 7 14
e 8 128
e 8 100
e 8 91
e 8 88
e 8 73
e 8 62
e 8 43
e 8 19
e 9 124
e 9 104
e 9 21
e 9 18
e 9 4
e 10 116
e 10 113
e 10 111
e 10 93
e 10 75
e 10 53
e 10 45
e 10 41
e 10 38
e 10 30
e 10 24
e 10 20
e 10 2
e 11 85
e 11 59
e 11 50
e 11 42
e 11 17
e 12 37
e 12 32
e 13 96
e 13 89
e 13 71
e 13 60
e 13 6
e 14 7
e 15 77
e 15 54
e 15 40
e 15 29
e 16 33
e 17 85
e 17 50
e 17 11
e 18 124
e 18 104
e 18 40
e 18 26
e 18 21
e 18 9
e 18 4
e 19 101
e 19 100
e 19 78
e 19 73
e 19 43
e 19 39
e 19 8
e 20 126
e 20 116
e 20 115
e 20 113
e 20 94
e 20 82
e 20 69
e 20 58
e 20 53
e 20 46
e 20 45
e 20 38
e 20 30
e 20 25
e 20 24
e 20 10
e 21 124
e 21 104
e 21 49
e 21 40
e 21 26
e 21 18
e 21 9
e 21 4
e 22 118
e 22 86
e 22 82
e 22 61
e 22 36
e 23 89
e 23 71
e 23 60
e 23 56
e 23 6
e 24 116
e 24 113
e 24 93
e 24 61
e 24 53
e 24 41
e 24 38
e 24 30
e 24 20
e 24 10
e 25 118
e 25 116
e 25 94
e 25 86
e 25 82
e 25 61
e 25 58
e 25 53
e 25 46
e 25 38
e 25 36
e 25 30
e 25 20
e 26 124
e 26 104
e 26 40
e 26 21
e 26 18
e 26 4
e 27 128
e 27 110
e 27 108
e 27 88
e 27 76
e 28 126
e 28 123
e 28 115
e 28 99
e 28 92
e 28 91
e 28 68
e 28 66
e 28 62
e 28 52
e 29 77
e 29 54
e 29 15
e 30 116
e 30 113
e 30 93
e 30 82
e 30 61
e 30 58
e 30 53
e 30 41
e 30 38
e 30 25
e 30 24
e 30 20
e 30 10
e 31 120
e 31 103
e 31 98
e 31 44
e 31 1
e 32 37
e 32 12
e 33 16
e 34 121
e 36 118
e 36 86
e 36 82
e 36 61
e 36 38
e 36 25
e 36 22
e 37 47
e 37 32
e 37 12
e 38 116
e 38 113
e 38 86
e 38 82
e 38 61
e 38 53
e 38 41
e 38 36
e 38 30
e 38 25
e 38 24
e 38 20
e 38 10
e 39 125
e 39 114
e 39 105
e 39 100
e 39 78
e 39 73
e 39 19
e 40 124
e 40 26
e 40 21
e 40 18
e 40 15
e 40 4
e 41 116
e 41 53
e 41 38
e 41 30
e 41 24
e 41 10
e 42 85
e 42 81
e 42 63
e 42 59
e 42 50
e 42 11
e 43 128
e 43 114
e 43 100
e 43 91
e 43 73
e 43 62
e 43 19
e 43 8
e 44 120
e 44 119
e 44 103
e 44 98
e 44 72
e 44 57
e 44 31
e 45 126
e 45 123
e 45 115
e 45 113
e 45 92
e 45 69
e 45 66
e 45 52
e 45 20
e 45 10
e 45 2
e 46 118
e 46 94
e 46 83
e 46 82
e 46 58
e 46 53
e 46 25
e 46 20
e 47 37
e 48 5
e 49 104
e 49 21
e 50 85
e 50 81
e 50 63
e 50 42
e 50 17
e 50 11
e 52 126
e 52 123
e 52 115
e 52 99
e 52 92
e 52 91
e 52 69
e 52 68
e 52 66
e 52 62
e 52 45
e 52 28
e 53 116
e 53 113
e 53 94
e 53 86
e 53 82
e 53 69
e 53 61
e 53 58
e 53 46
e 53 41
e 53 38
e 53 30
e 53 25
e 53 24
e 53 20
e 53 10
e 54 77
e 54 29
e 54 15
e 55 103
e 55 98
e 55 67
e 55 57
e 55 1
e 56 106
e 56 95
e 56 89
e 56 60
e 56 23
e 57 103
e 57 98
e 57 67
e 57 55
e 57 44
e 58 118
e 58 116
e 58 94
e 58 86
e 58 83
e 58 82
e 58 69
e 58 61
e 58 53
e 58 46
e 58 30
e 58 25
e 58 20
e 59 85
e 59 42
e 59 11
e 60 106
e 60 95
e 60 89
e 60 71
e 60 56
e 60 23
e 60 13
e 60 6
e 61 118
e 61 116
e 61 86
e 61 82
e 61 58
e 61 53
e 61 38
e 61 36
e 61 30
e 61 25
e 61 24
e 61 22
e 62 99
e 62 92
e 62 91
e 62 88
e 62 76
e 62 68
e 62 52
e 62 43
e 62 28
e 62 8
e 63 81
e 63 50
e 63 42
e 64 122
e 64 70
e 64 67
e 65 125
e 65 97
e 66 126
e 66 123
e 66 115
e 66 92
e 66 69
e 66 68
e 66 52
e 66 45
e 66 28
e 67 122
e 67 64
e 67 57
e 67 55
e 68 123
e 68 92
e 68 91
e 68 88
e 68 76
e 68 66
e 68 62
e 68 52
e 68 28
e 69 126
e 69 123
e 69 115
e 69 94
e 69 83
e 69 66
e 69 58
e 69 53
e 69 52
e 69 45
e 69 20
e 70 122
e 70 64
e 71 96
e 71 89
e 71 60
e 71 23
e 71 13
e 71 6
e 72 120
e 72 119
e 72 44
e 73 101
e 73 100
e 73 78
e 73 43
e 73 39
e 73 19
e 73 8
e 74 117
e 74 114
e 74 105
e 74 97
e 74 79
e 75 127
e 75 113
e 75 111
e 75 107
e 75 93
e 75 10
e 75 2
e 76 128
e 76 92
e 76 88
e 76 68
e 76 62
e 76 27
e 77 54
e 77 29
e 77 15
e 78 125
e 78 114
e 78 105
e 78 101
e 78 100
e 78 97
e 78 73
e 78 39
e 78 19
e 79 110
e 79 108
e 79 102
e 79 90
e 79 74
e 80 109
e 80 102
e 80 90
e 80 1
e 81 63
e 81 50
e 81 42
e 82 118
e 82 116
e 82 94
e 82 86
e 82 61
e 82 58
e 82 53
e 82 46
e 82 38
e 82 36
e 82 30
e 82 25
e 82 22
e 82 20
e 83 94
e 83 69
e 83 58
e 83 46
e 84 127
e 84 111
e 84 96
e 84 93
e 85 59
e 85 50
e 85 42
e 85 17
e 85 11
e 86 118
e 86 116
e 86 82
e 86 61
e 86 58
e 86 53
e 86 38
e 86 36
e 86 25
e 86 22
e 87 5
e 88 128
e 88 92
e 88 91
e 88 76
e 88 68
e 88 62
e 88 27
e 88 8
e 89 71
e 89 60
e 89 56
e 89 23
e 89 13
e 89 6
e 90 110
e 90 109
e 90 108
e 90 102
e 90 80
e 90 79
e 91 99
e 91 92
e 91 88
e 91 68
e 91 62
e 91 52
e 91 43
e 91 28
e 91 8
e 91 7
e 92 126
e 92 123
e 92 115
e 92 107
e 92 91
e 92 88
e 92 76
e 92 68
e 92 66
e 92 62
e 92 52
e 92 45
e 92 28
e 93 127
e 93 113
e 93 111
e 93 84
e 93 75
e 93 30
e 93 24
e 93 10
e 93 2
e 94 116
e 94 83
e 94 82
e 94 69
e 94 58
e 94 53
e 94 46
e 94 25
e 94 20
e 95 106
e 95 60
e 95 56
e 96 127
e 96 111
e 96 84
e 96 71
e 96 13
e 97 125
e 97 117
e 97 105
e 97 78
e 97 74
e 97 65
e 98 109
e 98 103
e 98 57
e 98 55
e 98 44
e 98 31
e 98 1
e 99 91
e 99 62
e 99 52
e 99 28
e 99 7
e 100 114
e 100 101
e 100 78
e 100 73
e 100 43
e 100 39
e 100 19
e 100 8
e 101 100
e 101 78
e 101 73
e 101 19
e 102 90
e 102 80
e 102 79
e 103 98
e 103 57
e 103 55
e 103 44
e 103 31
e 104 124
e 104 49
e 104 26
e 104 21
e 104 18
e 104 9
e 104 4
e 105 125
e 105 117
e 105 97
e 105 78
e 105 74
e 105 39
e 106 95
e 106 60
e 106 56
e 107 127
e 107 92
e 107 75
e 108 110
e 108 109
e 108 90
e 108 79
e 108 27
e 109 108
e 109 98
e 109 90
e 109 80
e 109 1
e 110 108
e 110 90
e 110 79
e 110 27
e 111 127
e 111 96
e 111 93
e 111 84
e 111 75
e 111 10
e 111 2
e 113 126
e 113 123
e 113 116
e 113 115
e 113 93
e 113 75
e 113 53
e 113 45
e 113 38
e 113 30
e 113 24
e 113 20
e 113 10
e 113 2
e 114 100
e 114 78
e 114 74
e 114 43
e 114 39
e 115 126
e 115 123
e 115 113
e 115 92
e 115 69
e 115 66
e 115 52
e 115 45
e 115 28
e 115 20
e 116 113
e 116 94
e 116 86
e 116 82
e 116 61
e 116 58
e 116 53
e 116 41
e 116 38
e 116 30
e 116 25
e 116 24
e 116 20
e 116 10
e 117 105
e 117 97
e 117 74
e 118 86
e 118 82
e 118 61
e 118 58
e 118 46
e 118 36
e 118 25
e 118 22
e 119 72
e 119 44
e 120 72
e 120 44
e 120 31
e 121 34
e 122 70
e 122 67
e 122 64
e 123 126
e 123 115
e 123 113
e 123 92
e 123 69
e 123 68
e 123 66
e 123 52
e 123 45
e 123 28
e 123 2
e 124 104
e 124 40
e 124 26
e 124 21
e 124 18
e 124 9
e 124 4
e 125 105
e 125 97
e 125 78
e 125 65
e 125 39
e 126 123
e 126 115
e 126 113
e 126 92
e 126 69
e 126 66
e 126 52
e 126 45
e 126 28
e 126 20
e 127 111
e 127 107
e 127 96
e 127 93
e 127 84
e 127 75
e 127 2
e 128 88
e 128 76
e 128 43
e 128 27
e 128 8
